p cnf 60 206
-1 2 0
-3 4 0
-1 5 0
-3 6 0
-7 5 0
-8 6 0
-7 4 0
-8 2 0
-9 -9 -6 6 2 0
-9 -10 -6 5 4 0
-10 -9 -5 6 2 0
-10 -10 -5 5 4 0
-11 -11 -6 6 2 0
-11 -12 -6 5 4 0
-12 -11 -5 6 2 0
-12 -12 -5 5 4 0
-9 -10 -6 5 7 1 0
-10 -9 -5 6 8 3 0
-11 -12 -6 5 7 1 0
-12 -11 -5 6 8 3 0
-2 -6 0
-2 -5 0
-4 -6 0
-4 -5 0
-6 -7 1 0
-5 -8 3 0
-6 7 1 0
-5 8 3 0
-13 14 0
-13 15 0
-16 14 0
-16 15 0
-17 18 0
-17 19 0
-20 18 0
-20 19 0
-21 22 0
-21 23 0
-24 22 0
-24 23 0
-25 26 0
-25 27 0
-28 26 0
-28 27 0
-14 13 0
-14 16 0
-15 13 0
-15 16 0
-18 17 0
-18 20 0
-19 17 0
-19 20 0
-22 21 0
-22 24 0
-23 21 0
-23 24 0
-26 25 0
-26 28 0
-27 25 0
-27 28 0
-29 -29 30 0
-29 -31 32 0
-31 -29 33 0
-31 -31 34 0
-35 -35 30 0
-35 -36 32 0
-36 -35 33 0
-36 -36 34 0
-2 29 0
-2 31 0
-4 35 0
-4 36 0
-7 -8 0
-8 -7 0
-1 -3 0
-3 -1 0
-7 37 -7 0
-8 38 -8 0
-1 37 -1 0
-3 38 -3 0
-1 -7 0
-3 -8 0
-9 -10 39 7 8 0
-10 -9 40 8 7 0
-11 -12 39 7 8 0
-12 -11 40 8 7 0
-9 -10 39 -2 -5 8 0
-10 -9 40 -4 -6 7 0
-11 -12 39 -2 -5 8 0
-12 -11 40 -4 -6 7 0
-7 -9 10 0
-7 -11 12 0
-8 -10 9 0
-8 -12 11 0
-13 2 0
-17 2 0
-16 4 0
-20 4 0
-21 2 0
-25 2 0
-24 4 0
-28 4 0
-29 2 0
-31 2 0
-35 4 0
-36 4 0
-7 6 0
-8 5 0
-7 4 0
-8 2 0
-41 6 0
-42 6 0
-43 5 0
-44 5 0
-1 6 0
-3 5 0
-1 4 0
-3 2 0
-45 6 0
-46 6 0
-47 5 0
-48 5 0
-14 6 0
-18 6 0
-15 5 0
-19 5 0
-22 6 0
-26 6 0
-23 5 0
-27 5 0
6 2 0
5 4 0
-6 -2 0
-5 -4 0
-41 49 -41 0
-41 50 -42 0
-42 51 -41 0
-42 52 -42 0
-43 49 -43 0
-43 50 -44 0
-44 51 -43 0
-44 52 -44 0
-45 53 -45 0
-45 54 -46 0
-46 55 -45 0
-46 56 -46 0
-47 53 -47 0
-47 54 -48 0
-48 55 -47 0
-48 56 -48 0
-13 57 -13 0
-17 57 -17 0
-16 57 -16 0
-20 57 -20 0
-13 58 -21 0
-17 58 -25 0
-16 58 -24 0
-20 58 -28 0
-21 59 -13 0
-25 59 -17 0
-24 59 -16 0
-28 59 -20 0
-21 60 -21 0
-25 60 -25 0
-24 60 -24 0
-28 60 -28 0
-13 39 -16 0
-17 39 -20 0
-16 40 -13 0
-20 40 -17 0
-21 39 -24 0
-25 39 -28 0
-24 40 -21 0
-28 40 -25 0
-14 57 -14 0
-18 57 -18 0
-15 57 -15 0
-19 57 -19 0
-14 58 -22 0
-18 58 -26 0
-15 58 -23 0
-19 58 -27 0
-22 59 -14 0
-26 59 -18 0
-23 59 -15 0
-27 59 -19 0
-22 60 -22 0
-26 60 -26 0
-23 60 -23 0
-27 60 -27 0
-14 38 -14 0
-18 38 -18 0
-14 39 -15 0
-18 39 -19 0
-15 40 -14 0
-19 40 -18 0
-15 37 -15 0
-19 37 -19 0
-22 38 -22 0
-26 38 -26 0
-22 39 -23 0
-26 39 -27 0
-23 40 -22 0
-27 40 -26 0
-23 37 -23 0
-27 37 -27 0
%
